p cnf 200 1110
-101 -44 0
-101 75 0
-101 -48 0
-101 52 0
-101 -6 0
-101 34 0
-101 -97 0
-101 -16 0
-101 -8 0
-101 5 0
101 44 -75 48 -52 6 -34 97 16 8 -5 0
-102 -87 0
-102 -91 0
-102 92 0
-102 71 0
-102 -17 0
-102 38 0
-102 -79 0
-102 -3 0
-102 69 0
-102 -46 0
102 87 91 -92 -71 17 -38 79 3 -69 46 0
-103 -68 0
-103 69 0
-103 -31 0
-103 -38 0
-103 75 0
-103 62 0
-103 -57 0
-103 33 0
-103 -59 0
-103 -78 0
103 68 -69 31 38 -75 -62 57 -33 59 78 0
-104 57 0
-104 18 0
-104 -38 0
-104 34 0
-104 -76 0
-104 -46 0
-104 -21 0
-104 -37 0
-104 -10 0
-104 22 0
104 -57 -18 38 -34 76 46 21 37 10 -22 0
-105 54 0
-105 -56 0
-105 -49 0
-105 27 0
-105 -51 0
-105 4 0
-105 45 0
-105 -23 0
-105 79 0
-105 43 0
105 -54 56 49 -27 51 -4 -45 23 -79 -43 0
-106 -55 0
-106 -35 0
-106 -22 0
-106 -41 0
-106 64 0
-106 -96 0
-106 -42 0
-106 -3 0
-106 1 0
-106 48 0
106 55 35 22 41 -64 96 42 3 -1 -48 0
-107 78 0
-107 -35 0
-107 18 0
-107 28 0
-107 -23 0
-107 60 0
-107 -20 0
-107 -37 0
-107 42 0
-107 8 0
107 -78 35 -18 -28 23 -60 20 37 -42 -8 0
-108 -92 0
-108 69 0
-108 -35 0
-108 -10 0
-108 -31 0
-108 -44 0
-108 -78 0
-108 -67 0
-108 51 0
-108 -74 0
108 92 -69 35 10 31 44 78 67 -51 74 0
-109 49 0
-109 71 0
-109 -66 0
-109 -81 0
-109 -90 0
-109 39 0
-109 -3 0
-109 -44 0
-109 -92 0
-109 26 0
109 -49 -71 66 81 90 -39 3 44 92 -26 0
-110 45 0
-110 60 0
-110 -71 0
-110 -54 0
-110 8 0
-110 -56 0
-110 -78 0
-110 -58 0
-110 -85 0
-110 6 0
110 -45 -60 71 54 -8 56 78 58 85 -6 0
101 102 103 104 105 106 107 108 109 110 0
-111 -18 0
-111 55 0
-111 -43 0
-111 89 0
-111 42 0
-111 -62 0
-111 -58 0
-111 36 0
-111 -74 0
-111 84 0
111 18 -55 43 -89 -42 62 58 -36 74 -84 0
-112 -81 0
-112 33 0
-112 20 0
-112 84 0
-112 64 0
-112 60 0
-112 -1 0
-112 97 0
-112 53 0
-112 26 0
112 81 -33 -20 -84 -64 -60 1 -97 -53 -26 0
-113 -94 0
-113 -39 0
-113 -4 0
-113 -43 0
-113 -71 0
-113 99 0
-113 2 0
-113 49 0
-113 20 0
-113 -77 0
113 94 39 4 43 71 -99 -2 -49 -20 77 0
-114 44 0
-114 1 0
-114 76 0
-114 68 0
-114 -42 0
-114 -33 0
-114 52 0
-114 51 0
-114 98 0
-114 75 0
114 -44 -1 -76 -68 42 33 -52 -51 -98 -75 0
-115 -54 0
-115 28 0
-115 100 0
-115 -14 0
-115 96 0
-115 65 0
-115 -50 0
-115 89 0
-115 -12 0
-115 64 0
115 54 -28 -100 14 -96 -65 50 -89 12 -64 0
-116 -46 0
-116 12 0
-116 59 0
-116 60 0
-116 1 0
-116 51 0
-116 68 0
-116 80 0
-116 4 0
-116 24 0
116 46 -12 -59 -60 -1 -51 -68 -80 -4 -24 0
-117 68 0
-117 89 0
-117 -14 0
-117 67 0
-117 -5 0
-117 -1 0
-117 2 0
-117 39 0
-117 -64 0
-117 -16 0
117 -68 -89 14 -67 5 1 -2 -39 64 16 0
-118 7 0
-118 -3 0
-118 -21 0
-118 -99 0
-118 44 0
-118 -48 0
-118 -91 0
-118 12 0
-118 96 0
-118 -59 0
118 -7 3 21 99 -44 48 91 -12 -96 59 0
-119 -87 0
-119 -99 0
-119 61 0
-119 53 0
-119 -35 0
-119 -81 0
-119 -98 0
-119 -24 0
-119 64 0
-119 -89 0
119 87 99 -61 -53 35 81 98 24 -64 89 0
-120 90 0
-120 97 0
-120 35 0
-120 -88 0
-120 -80 0
-120 82 0
-120 73 0
-120 98 0
-120 75 0
-120 -54 0
120 -90 -97 -35 88 80 -82 -73 -98 -75 54 0
111 112 113 114 115 116 117 118 119 120 0
-121 -16 0
-121 -86 0
-121 25 0
-121 -38 0
-121 -62 0
-121 -12 0
-121 13 0
-121 17 0
-121 -81 0
-121 -60 0
121 16 86 -25 38 62 12 -13 -17 81 60 0
-122 -64 0
-122 88 0
-122 28 0
-122 -30 0
-122 -58 0
-122 37 0
-122 59 0
-122 87 0
-122 76 0
-122 -85 0
122 64 -88 -28 30 58 -37 -59 -87 -76 85 0
-123 18 0
-123 -58 0
-123 4 0
-123 36 0
-123 -45 0
-123 17 0
-123 41 0
-123 22 0
-123 64 0
-123 -66 0
123 -18 58 -4 -36 45 -17 -41 -22 -64 66 0
-124 26 0
-124 18 0
-124 -90 0
-124 28 0
-124 -58 0
-124 -50 0
-124 -59 0
-124 -13 0
-124 74 0
-124 24 0
124 -26 -18 90 -28 58 50 59 13 -74 -24 0
-125 91 0
-125 -59 0
-125 -31 0
-125 -92 0
-125 22 0
-125 29 0
-125 11 0
-125 36 0
-125 -24 0
-125 41 0
125 -91 59 31 92 -22 -29 -11 -36 24 -41 0
-126 21 0
-126 -14 0
-126 24 0
-126 -1 0
-126 75 0
-126 -34 0
-126 -15 0
-126 -88 0
-126 33 0
-126 35 0
126 -21 14 -24 1 -75 34 15 88 -33 -35 0
-127 -71 0
-127 83 0
-127 -73 0
-127 -52 0
-127 -26 0
-127 -62 0
-127 87 0
-127 -41 0
-127 54 0
-127 42 0
127 71 -83 73 52 26 62 -87 41 -54 -42 0
-128 -91 0
-128 -48 0
-128 -72 0
-128 34 0
-128 -76 0
-128 -10 0
-128 -79 0
-128 92 0
-128 88 0
-128 57 0
128 91 48 72 -34 76 10 79 -92 -88 -57 0
-129 -24 0
-129 35 0
-129 -3 0
-129 -37 0
-129 53 0
-129 72 0
-129 -11 0
-129 26 0
-129 99 0
-129 2 0
129 24 -35 3 37 -53 -72 11 -26 -99 -2 0
-130 50 0
-130 49 0
-130 -14 0
-130 84 0
-130 17 0
-130 52 0
-130 -89 0
-130 -83 0
-130 -53 0
-130 -12 0
130 -50 -49 14 -84 -17 -52 89 83 53 12 0
121 122 123 124 125 126 127 128 129 130 0
-131 36 0
-131 53 0
-131 56 0
-131 59 0
-131 -95 0
-131 -64 0
-131 -71 0
-131 -97 0
-131 -98 0
-131 -84 0
131 -36 -53 -56 -59 95 64 71 97 98 84 0
-132 -7 0
-132 67 0
-132 -49 0
-132 20 0
-132 -71 0
-132 27 0
-132 -52 0
-132 33 0
-132 -46 0
-132 -55 0
132 7 -67 49 -20 71 -27 52 -33 46 55 0
-133 66 0
-133 35 0
-133 70 0
-133 -51 0
-133 91 0
-133 74 0
-133 -10 0
-133 13 0
-133 -31 0
-133 87 0
133 -66 -35 -70 51 -91 -74 10 -13 31 -87 0
-134 18 0
-134 -98 0
-134 62 0
-134 -67 0
-134 59 0
-134 -80 0
-134 4 0
-134 -8 0
-134 78 0
-134 15 0
134 -18 98 -62 67 -59 80 -4 8 -78 -15 0
-135 80 0
-135 -28 0
-135 63 0
-135 -6 0
-135 -78 0
-135 -95 0
-135 -60 0
-135 12 0
-135 -14 0
-135 -30 0
135 -80 28 -63 6 78 95 60 -12 14 30 0
-136 73 0
-136 -97 0
-136 -72 0
-136 -76 0
-136 -15 0
-136 -32 0
-136 84 0
-136 58 0
-136 -91 0
-136 68 0
136 -73 97 72 76 15 32 -84 -58 91 -68 0
-137 -73 0
-137 60 0
-137 -53 0
-137 30 0
-137 -92 0
-137 43 0
-137 7 0
-137 -51 0
-137 -99 0
-137 19 0
137 73 -60 53 -30 92 -43 -7 51 99 -19 0
-138 -45 0
-138 75 0
-138 -12 0
-138 68 0
-138 24 0
-138 58 0
-138 -53 0
-138 10 0
-138 21 0
-138 59 0
138 45 -75 12 -68 -24 -58 53 -10 -21 -59 0
-139 -11 0
-139 47 0
-139 69 0
-139 20 0
-139 -89 0
-139 93 0
-139 -32 0
-139 -19 0
-139 8 0
-139 -46 0
139 11 -47 -69 -20 89 -93 32 19 -8 46 0
-140 -76 0
-140 -1 0
-140 -42 0
-140 -77 0
-140 -56 0
-140 27 0
-140 -12 0
-140 -4 0
-140 59 0
-140 35 0
140 76 1 42 77 56 -27 12 4 -59 -35 0
131 132 133 134 135 136 137 138 139 140 0
-141 12 0
-141 29 0
-141 61 0
-141 93 0
-141 -49 0
-141 20 0
-141 -38 0
-141 -85 0
-141 -37 0
-141 28 0
141 -12 -29 -61 -93 49 -20 38 85 37 -28 0
-142 -71 0
-142 26 0
-142 -70 0
-142 42 0
-142 -46 0
-142 40 0
-142 82 0
-142 83 0
-142 -91 0
-142 80 0
142 71 -26 70 -42 46 -40 -82 -83 91 -80 0
-143 -51 0
-143 -57 0
-143 -90 0
-143 56 0
-143 3 0
-143 -15 0
-143 -34 0
-143 -42 0
-143 -71 0
-143 96 0
143 51 57 90 -56 -3 15 34 42 71 -96 0
-144 58 0
-144 77 0
-144 -36 0
-144 68 0
-144 63 0
-144 -29 0
-144 -3 0
-144 4 0
-144 -22 0
-144 -30 0
144 -58 -77 36 -68 -63 29 3 -4 22 30 0
-145 70 0
-145 -36 0
-145 -69 0
-145 58 0
-145 -74 0
-145 16 0
-145 55 0
-145 20 0
-145 26 0
-145 45 0
145 -70 36 69 -58 74 -16 -55 -20 -26 -45 0
-146 22 0
-146 -85 0
-146 83 0
-146 47 0
-146 -1 0
-146 -19 0
-146 -35 0
-146 -27 0
-146 -72 0
-146 54 0
146 -22 85 -83 -47 1 19 35 27 72 -54 0
-147 -23 0
-147 51 0
-147 37 0
-147 -65 0
-147 -68 0
-147 -82 0
-147 -22 0
-147 99 0
-147 -67 0
-147 -7 0
147 23 -51 -37 65 68 82 22 -99 67 7 0
-148 68 0
-148 -60 0
-148 10 0
-148 -59 0
-148 67 0
-148 39 0
-148 -40 0
-148 -6 0
-148 -24 0
-148 35 0
148 -68 60 -10 59 -67 -39 40 6 24 -35 0
-149 85 0
-149 -3 0
-149 -1 0
-149 -27 0
-149 -88 0
-149 -96 0
-149 -65 0
-149 -8 0
-149 87 0
-149 -70 0
149 -85 3 1 27 88 96 65 8 -87 70 0
-150 66 0
-150 -64 0
-150 51 0
-150 95 0
-150 25 0
-150 -94 0
-150 -98 0
-150 100 0
-150 62 0
-150 -10 0
150 -66 64 -51 -95 -25 94 98 -100 -62 10 0
141 142 143 144 145 146 147 148 149 150 0
-151 75 0
-151 11 0
-151 -41 0
-151 67 0
-151 -5 0
-151 -65 0
-151 78 0
-151 -19 0
-151 16 0
-151 82 0
151 -75 -11 41 -67 5 65 -78 19 -16 -82 0
-152 27 0
-152 -13 0
-152 41 0
-152 -26 0
-152 1 0
-152 63 0
-152 -79 0
-152 -42 0
-152 -97 0
-152 -10 0
152 -27 13 -41 26 -1 -63 79 42 97 10 0
-153 -81 0
-153 -54 0
-153 -9 0
-153 40 0
-153 12 0
-153 87 0
-153 80 0
-153 33 0
-153 88 0
-153 4 0
153 81 54 9 -40 -12 -87 -80 -33 -88 -4 0
-154 -68 0
-154 -51 0
-154 -79 0
-154 42 0
-154 -65 0
-154 -64 0
-154 -35 0
-154 -94 0
-154 21 0
-154 -28 0
154 68 51 79 -42 65 64 35 94 -21 28 0
-155 -50 0
-155 30 0
-155 31 0
-155 -38 0
-155 34 0
-155 42 0
-155 -93 0
-155 10 0
-155 -44 0
-155 83 0
155 50 -30 -31 38 -34 -42 93 -10 44 -83 0
-156 12 0
-156 5 0
-156 6 0
-156 11 0
-156 -44 0
-156 26 0
-156 -43 0
-156 77 0
-156 -31 0
-156 100 0
156 -12 -5 -6 -11 44 -26 43 -77 31 -100 0
-157 -63 0
-157 47 0
-157 72 0
-157 -31 0
-157 86 0
-157 -44 0
-157 -26 0
-157 78 0
-157 -99 0
-157 2 0
157 63 -47 -72 31 -86 44 26 -78 99 -2 0
-158 -32 0
-158 19 0
-158 -35 0
-158 -87 0
-158 44 0
-158 -96 0
-158 -77 0
-158 81 0
-158 54 0
-158 94 0
158 32 -19 35 87 -44 96 77 -81 -54 -94 0
-159 -32 0
-159 -39 0
-159 -27 0
-159 26 0
-159 14 0
-159 -11 0
-159 -96 0
-159 -77 0
-159 13 0
-159 -47 0
159 32 39 27 -26 -14 11 96 77 -13 47 0
-160 38 0
-160 1 0
-160 2 0
-160 62 0
-160 49 0
-160 32 0
-160 7 0
-160 -42 0
-160 55 0
-160 -93 0
160 -38 -1 -2 -62 -49 -32 -7 42 -55 93 0
151 152 153 154 155 156 157 158 159 160 0
-161 -94 0
-161 -65 0
-161 36 0
-161 52 0
-161 -10 0
-161 -11 0
-161 -89 0
-161 28 0
-161 38 0
-161 -7 0
161 94 65 -36 -52 10 11 89 -28 -38 7 0
-162 15 0
-162 52 0
-162 -75 0
-162 -35 0
-162 2 0
-162 28 0
-162 44 0
-162 22 0
-162 49 0
-162 -11 0
162 -15 -52 75 35 -2 -28 -44 -22 -49 11 0
-163 -61 0
-163 -77 0
-163 62 0
-163 -32 0
-163 -82 0
-163 -21 0
-163 67 0
-163 -55 0
-163 99 0
-163 -20 0
163 61 77 -62 32 82 21 -67 55 -99 20 0
-164 -93 0
-164 18 0
-164 52 0
-164 61 0
-164 25 0
-164 -78 0
-164 51 0
-164 -74 0
-164 -95 0
-164 66 0
164 93 -18 -52 -61 -25 78 -51 74 95 -66 0
-165 42 0
-165 66 0
-165 -97 0
-165 87 0
-165 -16 0
-165 -22 0
-165 -71 0
-165 -40 0
-165 1 0
-165 -45 0
165 -42 -66 97 -87 16 22 71 40 -1 45 0
-166 -82 0
-166 70 0
-166 -80 0
-166 -26 0
-166 50 0
-166 -76 0
-166 -62 0
-166 -11 0
-166 37 0
-166 83 0
166 82 -70 80 26 -50 76 62 11 -37 -83 0
-167 6 0
-167 -65 0
-167 92 0
-167 -17 0
-167 -80 0
-167 -40 0
-167 66 0
-167 -82 0
-167 48 0
-167 -85 0
167 -6 65 -92 17 80 40 -66 82 -48 85 0
-168 42 0
-168 -85 0
-168 -61 0
-168 75 0
-168 64 0
-168 77 0
-168 -40 0
-168 57 0
-168 12 0
-168 -98 0
168 -42 85 61 -75 -64 -77 40 -57 -12 98 0
-169 -77 0
-169 80 0
-169 15 0
-169 -6 0
-169 -70 0
-169 95 0
-169 -63 0
-169 -34 0
-169 60 0
-169 -20 0
169 77 -80 -15 6 70 -95 63 34 -60 20 0
-170 48 0
-170 25 0
-170 91 0
-170 -82 0
-170 87 0
-170 -58 0
-170 -79 0
-170 -42 0
-170 -73 0
-170 -83 0
170 -48 -25 -91 82 -87 58 79 42 73 83 0
161 162 163 164 165 166 167 168 169 170 0
-171 -6 0
-171 -74 0
-171 56 0
-171 31 0
-171 12 0
-171 -75 0
-171 16 0
-171 -41 0
-171 -89 0
-171 65 0
171 6 74 -56 -31 -12 75 -16 41 89 -65 0
-172 -16 0
-172 62 0
-172 60 0
-172 -47 0
-172 66 0
-172 -91 0
-172 -57 0
-172 23 0
-172 -84 0
-172 25 0
172 16 -62 -60 47 -66 91 57 -23 84 -25 0
-173 59 0
-173 -88 0
-173 -7 0
-173 -63 0
-173 47 0
-173 -27 0
-173 4 0
-173 -28 0
-173 -15 0
-173 39 0
173 -59 88 7 63 -47 27 -4 28 15 -39 0
-174 70 0
-174 -91 0
-174 -6 0
-174 -98 0
-174 -13 0
-174 -72 0
-174 -32 0
-174 -8 0
-174 -83 0
-174 -34 0
174 -70 91 6 98 13 72 32 8 83 34 0
-175 92 0
-175 36 0
-175 86 0
-175 -33 0
-175 -24 0
-175 84 0
-175 -78 0
-175 59 0
-175 100 0
-175 -87 0
175 -92 -36 -86 33 24 -84 78 -59 -100 87 0
-176 98 0
-176 56 0
-176 88 0
-176 -6 0
-176 -96 0
-176 79 0
-176 -5 0
-176 -78 0
-176 -34 0
-176 52 0
176 -98 -56 -88 6 96 -79 5 78 34 -52 0
-177 -44 0
-177 22 0
-177 -29 0
-177 26 0
-177 28 0
-177 39 0
-177 59 0
-177 35 0
-177 71 0
-177 -76 0
177 44 -22 29 -26 -28 -39 -59 -35 -71 76 0
-178 74 0
-178 -1 0
-178 -65 0
-178 32 0
-178 17 0
-178 41 0
-178 -10 0
-178 -44 0
-178 -92 0
-178 -68 0
178 -74 1 65 -32 -17 -41 10 44 92 68 0
-179 -26 0
-179 24 0
-179 -56 0
-179 -67 0
-179 -60 0
-179 -85 0
-179 -33 0
-179 28 0
-179 73 0
-179 -89 0
179 26 -24 56 67 60 85 33 -28 -73 89 0
-180 50 0
-180 53 0
-180 64 0
-180 20 0
-180 45 0
-180 41 0
-180 97 0
-180 99 0
-180 1 0
-180 -56 0
180 -50 -53 -64 -20 -45 -41 -97 -99 -1 56 0
171 172 173 174 175 176 177 178 179 180 0
-181 -30 0
-181 -29 0
-181 58 0
-181 3 0
-181 -77 0
-181 65 0
-181 -15 0
-181 -74 0
-181 -73 0
-181 22 0
181 30 29 -58 -3 77 -65 15 74 73 -22 0
-182 52 0
-182 51 0
-182 -100 0
-182 -77 0
-182 12 0
-182 -34 0
-182 44 0
-182 59 0
-182 -31 0
-182 61 0
182 -52 -51 100 77 -12 34 -44 -59 31 -61 0
-183 -95 0
-183 -64 0
-183 93 0
-183 -82 0
-183 -18 0
-183 -67 0
-183 96 0
-183 60 0
-183 2 0
-183 -91 0
183 95 64 -93 82 18 67 -96 -60 -2 91 0
-184 25 0
-184 -95 0
-184 -52 0
-184 -21 0
-184 47 0
-184 -11 0
-184 58 0
-184 -17 0
-184 -72 0
-184 2 0
184 -25 95 52 21 -47 11 -58 17 72 -2 0
-185 17 0
-185 -92 0
-185 45 0
-185 -64 0
-185 24 0
-185 100 0
-185 -67 0
-185 31 0
-185 60 0
-185 -25 0
185 -17 92 -45 64 -24 -100 67 -31 -60 25 0
-186 30 0
-186 -16 0
-186 -51 0
-186 63 0
-186 -87 0
-186 34 0
-186 -6 0
-186 -31 0
-186 -79 0
-186 28 0
186 -30 16 51 -63 87 -34 6 31 79 -28 0
-187 90 0
-187 17 0
-187 -4 0
-187 -1 0
-187 88 0
-187 -49 0
-187 60 0
-187 45 0
-187 50 0
-187 -52 0
187 -90 -17 4 1 -88 49 -60 -45 -50 52 0
-188 87 0
-188 31 0
-188 95 0
-188 -61 0
-188 71 0
-188 -70 0
-188 -19 0
-188 -30 0
-188 50 0
-188 86 0
188 -87 -31 -95 61 -71 70 19 30 -50 -86 0
-189 49 0
-189 -74 0
-189 42 0
-189 -45 0
-189 31 0
-189 -10 0
-189 66 0
-189 -36 0
-189 -34 0
-189 -54 0
189 -49 74 -42 45 -31 10 -66 36 34 54 0
-190 83 0
-190 -82 0
-190 12 0
-190 -27 0
-190 91 0
-190 32 0
-190 39 0
-190 -52 0
-190 -74 0
-190 57 0
190 -83 82 -12 27 -91 -32 -39 52 74 -57 0
181 182 183 184 185 186 187 188 189 190 0
-191 -28 0
-191 -81 0
-191 15 0
-191 78 0
-191 -23 0
-191 -25 0
-191 12 0
-191 -44 0
-191 76 0
-191 -88 0
191 28 81 -15 -78 23 25 -12 44 -76 88 0
-192 -38 0
-192 -18 0
-192 21 0
-192 33 0
-192 90 0
-192 13 0
-192 -31 0
-192 67 0
-192 -8 0
-192 74 0
192 38 18 -21 -33 -90 -13 31 -67 8 -74 0
-193 32 0
-193 -68 0
-193 21 0
-193 -45 0
-193 -61 0
-193 -46 0
-193 91 0
-193 90 0
-193 -38 0
-193 92 0
193 -32 68 -21 45 61 46 -91 -90 38 -92 0
-194 21 0
-194 -56 0
-194 -67 0
-194 47 0
-194 46 0
-194 14 0
-194 -3 0
-194 -10 0
-194 -100 0
-194 20 0
194 -21 56 67 -47 -46 -14 3 10 100 -20 0
-195 50 0
-195 48 0
-195 -98 0
-195 92 0
-195 -8 0
-195 47 0
-195 -60 0
-195 95 0
-195 -17 0
-195 16 0
195 -50 -48 98 -92 8 -47 60 -95 17 -16 0
-196 -15 0
-196 -3 0
-196 -77 0
-196 95 0
-196 -76 0
-196 -80 0
-196 83 0
-196 98 0
-196 -55 0
-196 -12 0
196 15 3 77 -95 76 80 -83 -98 55 12 0
-197 15 0
-197 7 0
-197 -62 0
-197 -85 0
-197 -17 0
-197 -68 0
-197 -29 0
-197 48 0
-197 -33 0
-197 -59 0
197 -15 -7 62 85 17 68 29 -48 33 59 0
-198 -33 0
-198 -97 0
-198 91 0
-198 -64 0
-198 -83 0
-198 7 0
-198 -2 0
-198 -32 0
-198 -11 0
-198 6 0
198 33 97 -91 64 83 -7 2 32 11 -6 0
-199 -3 0
-199 73 0
-199 71 0
-199 -37 0
-199 -60 0
-199 -82 0
-199 87 0
-199 -80 0
-199 -39 0
-199 13 0
199 3 -73 -71 37 60 82 -87 80 39 -13 0
-200 -4 0
-200 -44 0
-200 26 0
-200 -10 0
-200 -19 0
-200 75 0
-200 -22 0
-200 -64 0
-200 85 0
-200 -27 0
200 4 44 -26 10 19 -75 22 64 -85 27 0
191 192 193 194 195 196 197 198 199 200 0
